483 484 485 486 490 491 492 493 525 524 494 495 496 497 519 518 520 521 522 523 526 527 512 511 510 509 513 514 515 516 517 504 503 502 498 501 500 499 452 461 462 463 464 465 466 467 571 460 459 458 457 456 455 454 438 437 436 435 434 433 432 430 431 429 428 427 426 425 424 423 422 421 420 419 417 418 410 411 412 356 355 354 353 413 414 416 415 352 351 350 349 348 347 345 346 364 363 362 361 360 359 358 357 401 402 403 400 404 405 406 399 398 397 407 408 409 384 383 385 382 386 387 388 389 390 392 391 393 394 395 396 371 372 373 322 323 324 325 326 327 328 329 366 367 370 369 368 365 342 343 344 341 340 330 331 332 333 339 338 337 336 335 334 283 284 285 286 287 280 281 282 279 278 277 276 288 289 290 275 274 273 292 291 294 295 296 293 270 268 269 272 271 267 266 265 264 263 262 261 260 259 258 299 298 297 321 320 319 318 317 313 312 316 314 315 374 375 376 377 378 379 380 381 445 444 443 439 442 446 447 448 449 441 440 453 450 451 311 310 309 308 505 506 507 508 307 305 306 304 303 302 301 242 241 300 257 256 255 253 254 252 251 250 249 248 247 246 245 244 243 239 238 240 237 236 235 234 232 233 528 529 530 531 532 489 488 487 535 534 533 231 230 229 228 227 189 225 226 190 191 192 193 219 218 220 221 222 224 223 217 216 215 214 213 212 211 210 209 205 206 207 208 203 204 202 201 200 199 198 197 196 195 194 184 185 183 182 186 187 188 536 537 539 538 540 176 177 178 179 181 180 169 168 162 163 167 166 164 165 154 155 153 157 156 159 160 161 113 131 132 133 134 135 136 158 145 146 144 143 142 147 148 152 149 150 151 141 140 139 138 137 130 129 128 127 126 125 124 69 68 70 71 123 122 121 120 119 118 95 96 97 98 99 100 101 551 102 103 104 105 106 117 116 115 114 112 111 110 172 170 171 175 174 173 108 109 107 542 541 543 544 547 546 545 548 549 550 559 560 561 562 563 564 565 566 567 21 24 25 26 27 28 29 30 32 33 34 35 558 557 556 552 553 554 555 91 92 93 94 89 90 87 86 85 84 51 50 52 54 53 83 82 81 80 79 62 78 88 77 76 75 74 73 72 65 66 67 64 63 61 60 59 58 57 56 55 49 48 47 46 45 44 43 42 39 41 40 38 37 36 31 22 23 12 13 14 15 16 11 10 9 3 2 1 4 0 5 573 572 6 7 8 17 18 19 20 568 569 570 468 469 470 471 472 473 474 475 476 477 478 479 480 481 482